cond = [|
true, false, false, false, false, false, false, false, false, false, false, false, false, false, false, false, false, false, false, false, false, false, false, false, false, false, false,|
self_cpi_min  <= 0.695117, all_cpi_mean  <= 9.148936, true, self_cpi_mean  <= 2.000000, true, true, true, false, false, false, false, false, false, false, false, false, false, false, false, false, false, false, false, false, false, false, false,|
self_cpi_min  <= 1.009788, all_cpi_mean  <= 9.574468, true, self_cpi_mean  <= 2.000000, all_cpi_mean  <= 20.297872, self_cpi_min  <= 0.793724, true, self_cpi_mean  <= 2.000000, true, neigh_cpi_mean  <= 10.000000, all_cpi_mean  <= 2.510638, neigh_cpi_mean  <= 2.000000, true, true, true, true, true, self_cpi_min  <= 0.632370, true, all_cpi_mean  <= 11.276596, true, self_cpi_min  <= 0.514008, true, all_cpi_mean  <= 10.510638, true, true, true,|
self_cpi_mean  <= 2.000000, all_cpi_mean  <= 9.659574, true, self_cpi_min  <= 0.708918, true, true, self_cpi_min  <= 1.094450, all_cpi_mean  <= 2.510638, true, true, self_cpi_min  <= 0.916091, true, true, false, false, false, false, false, false, false, false, false, false, false, false, false, false,|
self_cpi_min  <= 0.725710, all_cpi_mean  <= 9.574468, true, self_cpi_mean  <= 2.000000, true, neigh_cpi_mean  <= 10.000000, true, self_cpi_min  <= 0.513159, true, all_cpi_mean  <= 9.148936, neigh_cpi_mean  <= 2.000000, true, all_cpi_mean  <= 9.489362, all_cpi_mean  <= 2.851064, true, true, true, true, true, false, false, false, false, false, false, false, false,|
true, false, false, false, false, false, false, false, false, false, false, false, false, false, false, false, false, false, false, false, false, false, false, false, false, false, false,|
self_cpi_mean  <= 2.000000, self_cpi_min  <= 1.034560, true, true, neigh_cpi_mean  <= 2.000000, all_cpi_mean  <= 21.234043, neigh_cpi_mean  <= 10.000000, self_cpi_min  <= 1.574805, true, all_cpi_mean  <= 10.000000, true, true, self_cpi_min  <= 1.640685, true, true, true, all_cpi_mean  <= 9.659574, true, all_cpi_mean  <= 11.276596, true, true, false, false, false, false, false, false,|
self_cpi_min  <= 3.452812, self_cpi_min  <= 1.603116, true, true, self_cpi_mean  <= 2.000000, true, all_cpi_mean  <= 19.276596, self_cpi_mean  <= 10.000000, true, all_cpi_mean  <= 2.680851, true, true, all_cpi_mean  <= 5.404255, true, all_cpi_mean  <= 9.063830, true, all_cpi_mean  <= 12.042553, all_cpi_mean  <= 10.340426, all_cpi_mean  <= 19.021277, self_cpi_min  <= 2.609069, true, true, self_cpi_min  <= 2.458023, true, true, true, true,|
self_cpi_min  <= 2.114625, self_cpi_min  <= 1.811556, self_cpi_min  <= 4.428939, true, neigh_cpi_mean  <= 10.000000, all_cpi_mean  <= 19.021277, true, self_cpi_mean  <= 10.000000, true, all_cpi_mean  <= 2.680851, true, true, true, true, self_cpi_mean  <= 10.000000, neigh_cpi_mean  <= 2.000000, true, self_cpi_min  <= 3.394520, true, true, true, false, false, false, false, false, false,|
self_cpi_min  <= 3.298401, self_cpi_min  <= 1.842257, true, true, self_cpi_mean  <= 10.000000, all_cpi_mean  <= 19.276596, true, true, true, false, false, false, false, false, false, false, false, false, false, false, false, false, false, false, false, false, false,|
self_cpi_min  <= 2.341416, self_cpi_min  <= 1.732537, self_cpi_min  <= 3.642399, true, self_cpi_mean  <= 2.000000, self_cpi_mean  <= 10.000000, true, true, all_cpi_mean  <= 9.319149, all_cpi_mean  <= 19.276596, true, all_cpi_mean  <= 5.404255, true, all_cpi_mean  <= 12.042553, true, all_cpi_mean  <= 2.425532, true, all_cpi_mean  <= 9.319149, true, true, true, all_cpi_mean  <= 5.404255, true, true, true, false, false,|
self_cpi_mean  <= 2.000000, self_cpi_min  <= 1.014862, self_cpi_min  <= 0.693536, true, neigh_cpi_mean  <= 2.000000, neigh_cpi_mean  <= 2.000000, true, all_cpi_mean  <= 20.382979, all_cpi_mean  <= 2.851064, all_cpi_mean  <= 20.297872, true, true, self_cpi_min  <= 1.062035, true, true, true, true, true, true, false, false, false, false, false, false, false, false,|
self_cpi_mean  <= 2.000000, true, true, false, false, false, false, false, false, false, false, false, false, false, false, false, false, false, false, false, false, false, false, false, false, false, false,|
self_cpi_min  <= 3.681347, self_cpi_min  <= 1.903458, true, true, all_cpi_mean  <= 19.276596, self_cpi_mean  <= 10.000000, all_cpi_mean  <= 20.297872, all_cpi_mean  <= 10.340426, self_cpi_min  <= 2.678329, self_cpi_min  <= 2.342231, true, true, all_cpi_mean  <= 12.042553, true, true, true, true, true, true, false, false, false, false, false, false, false, false,|
self_cpi_min  <= 4.652854, self_cpi_min  <= 2.469678, true, true, all_cpi_mean  <= 20.297872, self_cpi_mean  <= 10.000000, true, true, self_cpi_min  <= 3.227995, true, true, false, false, false, false, false, false, false, false, false, false, false, false, false, false, false, false,|
self_cpi_min  <= 4.171628, self_cpi_min  <= 2.542306, true, true, all_cpi_mean  <= 10.340426, true, self_cpi_mean  <= 10.000000, all_cpi_mean  <= 20.297872, true, neigh_cpi_mean  <= 2.000000, true, true, true, false, false, false, false, false, false, false, false, false, false, false, false, false, false,|
self_cpi_min  <= 2.898146, self_cpi_min  <= 1.876420, self_cpi_min  <= 4.105475, true, self_cpi_mean  <= 10.000000, all_cpi_mean  <= 3.702128, true, true, true, self_cpi_mean  <= 10.000000, self_cpi_min  <= 4.061461, true, true, true, true, false, false, false, false, false, false, false, false, false, false, false, false,|
self_cpi_mean  <= 2.000000, self_cpi_min  <= 1.353294, self_cpi_min  <= 0.693950, true, all_cpi_mean  <= 9.829787, all_cpi_mean  <= 3.276596, true, true, neigh_cpi_mean  <= 2.000000, true, true, true, true, false, false, false, false, false, false, false, false, false, false, false, false, false, false,|
self_cpi_mean  <= 2.000000, all_cpi_mean  <= 21.148936, self_cpi_min  <= 0.592703, true, self_cpi_min  <= 1.079423, neigh_cpi_mean  <= 2.000000, true, true, true, all_cpi_mean  <= 20.723404, true, true, true, false, false, false, false, false, false, false, false, false, false, false, false, false, false,|
self_cpi_min  <= 4.494662, self_cpi_min  <= 2.706829, true, true, self_cpi_mean  <= 10.000000, all_cpi_mean  <= 19.957447, true, true, true, false, false, false, false, false, false, false, false, false, false, false, false, false, false, false, false, false, false,|
self_cpi_min  <= 4.977754, self_cpi_min  <= 2.646030, self_cpi_min  <= 6.020970, true, self_cpi_mean  <= 10.000000, all_cpi_mean  <= 10.340426, true, all_cpi_mean  <= 10.000000, true, self_cpi_mean  <= 10.000000, true, true, all_cpi_mean  <= 12.042553, true, true, self_cpi_min  <= 3.816425, all_cpi_mean  <= 20.978723, true, true, true, true, false, false, false, false, false, false,|
self_cpi_min  <= 4.832098, self_cpi_min  <= 3.250847, true, true, self_cpi_mean  <= 10.000000, true, true, false, false, false, false, false, false, false, false, false, false, false, false, false, false, false, false, false, false, false, false,|
self_cpi_min  <= 3.122455, true, self_cpi_min  <= 5.028283, all_cpi_mean  <= 3.361702, true, true, self_cpi_mean  <= 10.000000, all_cpi_mean  <= 5.404255, true, true, all_cpi_mean  <= 9.319149, true, all_cpi_mean  <= 12.042553, true, all_cpi_mean  <= 19.021277, true, true, false, false, false, false, false, false, false, false, false, false,|
self_cpi_mean  <= 2.000000, true, true, false, false, false, false, false, false, false, false, false, false, false, false, false, false, false, false, false, false, false, false, false, false, false, false,|
self_cpi_mean  <= 2.000000, self_cpi_min  <= 1.522790, self_cpi_min  <= 0.943769, true, neigh_cpi_mean  <= 2.000000, neigh_cpi_mean  <= 2.000000, true, true, all_cpi_mean  <= 10.851064, self_cpi_mean  <= 10.000000, true, true, true, all_cpi_mean  <= 20.723404, true, true, true, false, false, false, false, false, false, false, false, false, false,|
self_cpi_min  <= 3.157653, self_cpi_min  <= 2.528302, self_cpi_min  <= 5.232549, true, self_cpi_mean  <= 10.000000, self_cpi_mean  <= 10.000000, true, all_cpi_mean  <= 20.297872, true, all_cpi_mean  <= 3.361702, true, true, true, true, true, false, false, false, false, false, false, false, false, false, false, false, false,|
self_cpi_min  <= 4.791818, self_cpi_mean  <= 10.000000, true, true, self_cpi_min  <= 3.272788, true, true, false, false, false, false, false, false, false, false, false, false, false, false, false, false, false, false, false, false, false, false,|
self_cpi_min  <= 5.324689, self_cpi_min  <= 2.871345, true, true, self_cpi_mean  <= 10.000000, true, true, false, false, false, false, false, false, false, false, false, false, false, false, false, false, false, false, false, false, false, false,|
self_cpi_min  <= 3.762825, self_cpi_min  <= 1.880506, true, true, self_cpi_mean  <= 10.000000, all_cpi_mean  <= 10.340426, self_cpi_min  <= 2.494731, true, neigh_cpi_mean  <= 10.000000, true, true, all_cpi_mean  <= 20.297872, true, true, true, false, false, false, false, false, false, false, false, false, false, false, false,|
self_cpi_mean  <= 2.000000, true, self_cpi_min  <= 0.681315, neigh_cpi_mean  <= 2.000000, true, self_cpi_mean  <= 10.000000, true, true, true, false, false, false, false, false, false, false, false, false, false, false, false, false, false, false, false, false, false,|
self_cpi_mean  <= 2.000000, true, self_cpi_min  <= 0.571469, self_cpi_min  <= 0.500000, true, true, true, false, false, false, false, false, false, false, false, false, false, false, false, false, false, false, false, false, false, false, false,|
self_cpi_min  <= 3.563968, self_cpi_min  <= 2.279656, true, true, all_cpi_mean  <= 20.297872, self_cpi_mean  <= 10.000000, true, neigh_cpi_mean  <= 10.000000, true, true, true, false, false, false, false, false, false, false, false, false, false, false, false, false, false, false, false,|
self_cpi_min  <= 5.078449, self_cpi_min  <= 3.213338, true, true, self_cpi_mean  <= 10.000000, all_cpi_mean  <= 20.297872, true, true, true, false, false, false, false, false, false, false, false, false, false, false, false, false, false, false, false, false, false,|
self_cpi_min  <= 4.371315, self_cpi_min  <= 3.236502, true, true, self_cpi_mean  <= 10.000000, all_cpi_mean  <= 20.978723, true, true, true, false, false, false, false, false, false, false, false, false, false, false, false, false, false, false, false, false, false,|
self_cpi_min  <= 3.048303, self_cpi_min  <= 2.089256, self_cpi_min  <= 5.485216, true, all_cpi_mean  <= 20.297872, self_cpi_mean  <= 10.000000, true, self_cpi_mean  <= 10.000000, true, all_cpi_mean  <= 2.680851, true, true, true, true, all_cpi_mean  <= 19.021277, all_cpi_mean  <= 12.042553, true, true, true, false, false, false, false, false, false, false, false,|
self_cpi_mean  <= 2.000000, all_cpi_mean  <= 21.148936, self_cpi_min  <= 0.660986, true, self_cpi_min  <= 1.193118, neigh_cpi_mean  <= 2.000000, true, true, neigh_cpi_mean  <= 2.000000, self_cpi_min  <= 0.591084, true, self_cpi_min  <= 1.358028, true, true, true, true, true, false, false, false, false, false, false, false, false, false, false,|
self_cpi_mean  <= 2.000000, true, self_cpi_min  <= 0.899242, self_cpi_min  <= 0.689931, true, self_cpi_min  <= 0.516119, true, true, true, false, false, false, false, false, false, false, false, false, false, false, false, false, false, false, false, false, false,|
self_cpi_min  <= 3.447075, self_cpi_min  <= 1.886489, true, true, all_cpi_mean  <= 20.297872, self_cpi_mean  <= 10.000000, true, neigh_cpi_mean  <= 10.000000, true, true, true, false, false, false, false, false, false, false, false, false, false, false, false, false, false, false, false,|
self_cpi_min  <= 3.176661, true, self_cpi_min  <= 4.762639, self_cpi_mean  <= 10.000000, true, all_cpi_mean  <= 3.191489, true, true, all_cpi_mean  <= 20.297872, all_cpi_mean  <= 12.042553, true, all_cpi_mean  <= 10.340426, true, all_cpi_mean  <= 5.404255, true, true, true, false, false, false, false, false, false, false, false, false, false,|
self_cpi_min  <= 3.391960, self_cpi_mean  <= 10.000000, self_cpi_min  <= 5.442048, self_cpi_min  <= 2.188201, self_cpi_min  <= 2.499694, self_cpi_mean  <= 10.000000, true, true, all_cpi_mean  <= 20.297872, true, true, self_cpi_min  <= 4.647301, true, true, true, all_cpi_mean  <= 10.340426, true, true, true, false, false, false, false, false, false, false, false,|
self_cpi_min  <= 3.398714, self_cpi_min  <= 1.612469, true, true, self_cpi_mean  <= 10.000000, neigh_cpi_mean  <= 10.000000, self_cpi_min  <= 2.266929, all_cpi_mean  <= 20.978723, true, self_cpi_min  <= 1.781976, true, neigh_cpi_mean  <= 2.000000, true, true, true, true, self_cpi_min  <= 2.627688, true, true, false, false, false, false, false, false, false, false,|
self_cpi_mean  <= 2.000000, self_cpi_min  <= 1.150436, true, true, neigh_cpi_mean  <= 2.000000, true, all_cpi_mean  <= 11.276596, self_cpi_min  <= 1.423263, true, true, true, false, false, false, false, false, false, false, false, false, false, false, false, false, false, false, false,|
self_cpi_mean  <= 2.000000, true, self_cpi_min  <= 0.961667, self_cpi_min  <= 0.549950, true, self_cpi_min  <= 0.500433, true, neigh_cpi_mean  <= 2.000000, true, all_cpi_mean  <= 9.829787, true, true, true, false, false, false, false, false, false, false, false, false, false, false, false, false, false,|
self_cpi_min  <= 2.195184, true, true, false, false, false, false, false, false, false, false, false, false, false, false, false, false, false, false, false, false, false, false, false, false, false, false,|
self_cpi_min  <= 3.081320, self_cpi_min  <= 2.203922, true, true, self_cpi_mean  <= 10.000000, true, true, false, false, false, false, false, false, false, false, false, false, false, false, false, false, false, false, false, false, false, false,|
self_cpi_min  <= 3.047146, self_cpi_min  <= 2.145615, true, true, self_cpi_mean  <= 10.000000, all_cpi_mean  <= 20.382979, true, true, true, false, false, false, false, false, false, false, false, false, false, false, false, false, false, false, false, false, false,|
self_cpi_min  <= 2.234866, self_cpi_min  <= 1.588104, true, true, self_cpi_mean  <= 10.000000, neigh_cpi_mean  <= 10.000000, true, all_cpi_mean  <= 21.234043, true, true, true, false, false, false, false, false, false, false, false, false, false, false, false, false, false, false, false,|
self_cpi_mean  <= 2.000000, true, self_cpi_min  <= 0.699547, self_cpi_min  <= 0.631782, true, true, true, false, false, false, false, false, false, false, false, false, false, false, false, false, false, false, false, false, false, false, false |];

child = [|
-1, -2, -2, -2, -2, -2, -2, -2, -2, -2, -2, -2, -2, -2, -2, -2, -2, -2, -2, -2, -2, -2, -2, -2, -2, -2, -2,|
2, 4, -1, 6, -1, -1, -1, -2, -2, -2, -2, -2, -2, -2, -2, -2, -2, -2, -2, -2, -2, -2, -2, -2, -2, -2, -2,|
2, 4, -1, 6, 8, 10, -1, 12, -1, 14, 16, 18, -1, -1, -1, -1, -1, 20, -1, 22, -1, 24, -1, 26, -1, -1, -1,|
2, 4, -1, 6, -1, -1, 8, 10, -1, -1, 12, -1, -1, -2, -2, -2, -2, -2, -2, -2, -2, -2, -2, -2, -2, -2, -2,|
2, 4, -1, 6, -1, 8, -1, 10, -1, 12, 14, -1, 16, 18, -1, -1, -1, -1, -1, -2, -2, -2, -2, -2, -2, -2, -2,|
-1, -2, -2, -2, -2, -2, -2, -2, -2, -2, -2, -2, -2, -2, -2, -2, -2, -2, -2, -2, -2, -2, -2, -2, -2, -2, -2,|
2, 4, -1, -1, 6, 8, 10, 12, -1, 14, -1, -1, 16, -1, -1, -1, 18, -1, 20, -1, -1, -2, -2, -2, -2, -2, -2,|
2, 4, -1, -1, 6, -1, 8, 10, -1, 12, -1, -1, 14, -1, 16, -1, 18, 20, 22, 24, -1, -1, 26, -1, -1, -1, -1,|
2, 4, 6, -1, 8, 10, -1, 12, -1, 14, -1, -1, -1, -1, 16, 18, -1, 20, -1, -1, -1, -2, -2, -2, -2, -2, -2,|
2, 4, -1, -1, 6, 8, -1, -1, -1, -2, -2, -2, -2, -2, -2, -2, -2, -2, -2, -2, -2, -2, -2, -2, -2, -2, -2,|
2, 4, 6, -1, 8, 10, -1, -1, 12, 14, -1, 16, -1, 18, -1, 20, -1, 22, -1, -1, -1, 24, -1, -1, -1, -2, -2,|
2, 4, 6, -1, 8, 10, -1, 12, 14, 16, -1, -1, 18, -1, -1, -1, -1, -1, -1, -2, -2, -2, -2, -2, -2, -2, -2,|
2, -1, -1, -2, -2, -2, -2, -2, -2, -2, -2, -2, -2, -2, -2, -2, -2, -2, -2, -2, -2, -2, -2, -2, -2, -2, -2,|
2, 4, -1, -1, 6, 8, 10, 12, 14, 16, -1, -1, 18, -1, -1, -1, -1, -1, -1, -2, -2, -2, -2, -2, -2, -2, -2,|
2, 4, -1, -1, 6, 8, -1, -1, 10, -1, -1, -2, -2, -2, -2, -2, -2, -2, -2, -2, -2, -2, -2, -2, -2, -2, -2,|
2, 4, -1, -1, 6, -1, 8, 10, -1, 12, -1, -1, -1, -2, -2, -2, -2, -2, -2, -2, -2, -2, -2, -2, -2, -2, -2,|
2, 4, 6, -1, 8, 10, -1, -1, -1, 12, 14, -1, -1, -1, -1, -2, -2, -2, -2, -2, -2, -2, -2, -2, -2, -2, -2,|
2, 4, 6, -1, 8, 10, -1, -1, 12, -1, -1, -1, -1, -2, -2, -2, -2, -2, -2, -2, -2, -2, -2, -2, -2, -2, -2,|
2, 4, 6, -1, 8, 10, -1, -1, -1, 12, -1, -1, -1, -2, -2, -2, -2, -2, -2, -2, -2, -2, -2, -2, -2, -2, -2,|
2, 4, -1, -1, 6, 8, -1, -1, -1, -2, -2, -2, -2, -2, -2, -2, -2, -2, -2, -2, -2, -2, -2, -2, -2, -2, -2,|
2, 4, 6, -1, 8, 10, -1, 12, -1, 14, -1, -1, 16, -1, -1, 18, 20, -1, -1, -1, -1, -2, -2, -2, -2, -2, -2,|
2, 4, -1, -1, 6, -1, -1, -2, -2, -2, -2, -2, -2, -2, -2, -2, -2, -2, -2, -2, -2, -2, -2, -2, -2, -2, -2,|
2, -1, 4, 6, -1, -1, 8, 10, -1, -1, 12, -1, 14, -1, 16, -1, -1, -2, -2, -2, -2, -2, -2, -2, -2, -2, -2,|
2, -1, -1, -2, -2, -2, -2, -2, -2, -2, -2, -2, -2, -2, -2, -2, -2, -2, -2, -2, -2, -2, -2, -2, -2, -2, -2,|
2, 4, 6, -1, 8, 10, -1, -1, 12, 14, -1, -1, -1, 16, -1, -1, -1, -2, -2, -2, -2, -2, -2, -2, -2, -2, -2,|
2, 4, 6, -1, 8, 10, -1, 12, -1, 14, -1, -1, -1, -1, -1, -2, -2, -2, -2, -2, -2, -2, -2, -2, -2, -2, -2,|
2, 4, -1, -1, 6, -1, -1, -2, -2, -2, -2, -2, -2, -2, -2, -2, -2, -2, -2, -2, -2, -2, -2, -2, -2, -2, -2,|
2, 4, -1, -1, 6, -1, -1, -2, -2, -2, -2, -2, -2, -2, -2, -2, -2, -2, -2, -2, -2, -2, -2, -2, -2, -2, -2,|
2, 4, -1, -1, 6, 8, 10, -1, 12, -1, -1, 14, -1, -1, -1, -2, -2, -2, -2, -2, -2, -2, -2, -2, -2, -2, -2,|
2, -1, 4, 6, -1, 8, -1, -1, -1, -2, -2, -2, -2, -2, -2, -2, -2, -2, -2, -2, -2, -2, -2, -2, -2, -2, -2,|
2, -1, 4, 6, -1, -1, -1, -2, -2, -2, -2, -2, -2, -2, -2, -2, -2, -2, -2, -2, -2, -2, -2, -2, -2, -2, -2,|
2, 4, -1, -1, 6, 8, -1, 10, -1, -1, -1, -2, -2, -2, -2, -2, -2, -2, -2, -2, -2, -2, -2, -2, -2, -2, -2,|
2, 4, -1, -1, 6, 8, -1, -1, -1, -2, -2, -2, -2, -2, -2, -2, -2, -2, -2, -2, -2, -2, -2, -2, -2, -2, -2,|
2, 4, -1, -1, 6, 8, -1, -1, -1, -2, -2, -2, -2, -2, -2, -2, -2, -2, -2, -2, -2, -2, -2, -2, -2, -2, -2,|
2, 4, 6, -1, 8, 10, -1, 12, -1, 14, -1, -1, -1, -1, 16, 18, -1, -1, -1, -2, -2, -2, -2, -2, -2, -2, -2,|
2, 4, 6, -1, 8, 10, -1, -1, 12, 14, -1, 16, -1, -1, -1, -1, -1, -2, -2, -2, -2, -2, -2, -2, -2, -2, -2,|
2, -1, 4, 6, -1, 8, -1, -1, -1, -2, -2, -2, -2, -2, -2, -2, -2, -2, -2, -2, -2, -2, -2, -2, -2, -2, -2,|
2, 4, -1, -1, 6, 8, -1, 10, -1, -1, -1, -2, -2, -2, -2, -2, -2, -2, -2, -2, -2, -2, -2, -2, -2, -2, -2,|
2, -1, 4, 6, -1, 8, -1, -1, 10, 12, -1, 14, -1, 16, -1, -1, -1, -2, -2, -2, -2, -2, -2, -2, -2, -2, -2,|
2, 4, 6, 8, 10, 12, -1, -1, 14, -1, -1, 16, -1, -1, -1, 18, -1, -1, -1, -2, -2, -2, -2, -2, -2, -2, -2,|
2, 4, -1, -1, 6, 8, 10, 12, -1, 14, -1, 16, -1, -1, -1, -1, 18, -1, -1, -2, -2, -2, -2, -2, -2, -2, -2,|
2, 4, -1, -1, 6, -1, 8, 10, -1, -1, -1, -2, -2, -2, -2, -2, -2, -2, -2, -2, -2, -2, -2, -2, -2, -2, -2,|
2, -1, 4, 6, -1, 8, -1, 10, -1, 12, -1, -1, -1, -2, -2, -2, -2, -2, -2, -2, -2, -2, -2, -2, -2, -2, -2,|
2, -1, -1, -2, -2, -2, -2, -2, -2, -2, -2, -2, -2, -2, -2, -2, -2, -2, -2, -2, -2, -2, -2, -2, -2, -2, -2,|
2, 4, -1, -1, 6, -1, -1, -2, -2, -2, -2, -2, -2, -2, -2, -2, -2, -2, -2, -2, -2, -2, -2, -2, -2, -2, -2,|
2, 4, -1, -1, 6, 8, -1, -1, -1, -2, -2, -2, -2, -2, -2, -2, -2, -2, -2, -2, -2, -2, -2, -2, -2, -2, -2,|
2, 4, -1, -1, 6, 8, -1, 10, -1, -1, -1, -2, -2, -2, -2, -2, -2, -2, -2, -2, -2, -2, -2, -2, -2, -2, -2,|
2, -1, 4, 6, -1, -1, -1, -2, -2, -2, -2, -2, -2, -2, -2, -2, -2, -2, -2, -2, -2, -2, -2, -2, -2, -2, -2 |];

val = [|
1, -2, -2, -2, -2, -2, -2, -2, -2, -2, -2, -2, -2, -2, -2, -2, -2, -2, -2, -2, -2, -2, -2, -2, -2, -2, -2,|
-1, -1, 1, -1, 1, 0, 1, -2, -2, -2, -2, -2, -2, -2, -2, -2, -2, -2, -2, -2, -2, -2, -2, -2, -2, -2, -2,|
-1, -1, 1, -1, -1, -1, 1, -1, 1, -1, -1, -1, 1, 0, 1, 0, 1, -1, 1, -1, 1, -1, 0, -1, 1, 0, 1,|
-1, -1, 1, -1, 1, 0, -1, -1, 1, 0, -1, 1, 0, -2, -2, -2, -2, -2, -2, -2, -2, -2, -2, -2, -2, -2, -2,|
-1, -1, 1, -1, 1, -1, 1, -1, 1, -1, -1, 0, -1, -1, 1, 1, 0, 0, 1, -2, -2, -2, -2, -2, -2, -2, -2,|
1, -2, -2, -2, -2, -2, -2, -2, -2, -2, -2, -2, -2, -2, -2, -2, -2, -2, -2, -2, -2, -2, -2, -2, -2, -2, -2,|
-1, -1, 1, 0, -1, -1, -1, -1, 1, -1, 1, 0, -1, 0, 1, 1, -1, 0, -1, 1, 0, -2, -2, -2, -2, -2, -2,|
-1, -1, 1, 0, -1, 0, -1, -1, 1, -1, 1, 0, -1, 1, -1, 0, -1, -1, -1, -1, 1, 0, -1, 0, 1, 0, 1,|
-1, -1, -1, 0, -1, -1, 1, -1, 1, -1, 1, 0, 1, 0, -1, -1, 1, -1, 1, 0, 1, -2, -2, -2, -2, -2, -2,|
-1, -1, 1, 0, -1, -1, 1, 0, 1, -2, -2, -2, -2, -2, -2, -2, -2, -2, -2, -2, -2, -2, -2, -2, -2, -2, -2,|
-1, -1, -1, 0, -1, -1, 1, 0, -1, -1, 1, -1, 1, -1, 1, -1, 0, -1, 0, 0, 1, -1, 1, 1, 0, -2, -2,|
-1, -1, -1, 0, -1, -1, 1, -1, -1, -1, 1, 0, -1, 0, 1, 0, 1, 0, 1, -2, -2, -2, -2, -2, -2, -2, -2,|
-1, 0, 1, -2, -2, -2, -2, -2, -2, -2, -2, -2, -2, -2, -2, -2, -2, -2, -2, -2, -2, -2, -2, -2, -2, -2, -2,|
-1, -1, 1, 0, -1, -1, -1, -1, -1, -1, 1, 0, -1, 0, 1, 0, 1, 1, 0, -2, -2, -2, -2, -2, -2, -2, -2,|
-1, -1, 1, 0, -1, -1, 1, 0, -1, 0, 1, -2, -2, -2, -2, -2, -2, -2, -2, -2, -2, -2, -2, -2, -2, -2, -2,|
-1, -1, 1, 0, -1, 0, -1, -1, 1, -1, 1, 0, 1, -2, -2, -2, -2, -2, -2, -2, -2, -2, -2, -2, -2, -2, -2,|
-1, -1, -1, 0, -1, -1, 1, 0, 1, -1, -1, 0, 1, 1, 0, -2, -2, -2, -2, -2, -2, -2, -2, -2, -2, -2, -2,|
-1, -1, -1, 0, -1, -1, 1, 0, -1, 0, 1, 0, 1, -2, -2, -2, -2, -2, -2, -2, -2, -2, -2, -2, -2, -2, -2,|
-1, -1, -1, 0, -1, -1, 1, 0, 1, -1, 1, 0, 1, -2, -2, -2, -2, -2, -2, -2, -2, -2, -2, -2, -2, -2, -2,|
-1, -1, 1, 0, -1, -1, 1, 0, 1, -2, -2, -2, -2, -2, -2, -2, -2, -2, -2, -2, -2, -2, -2, -2, -2, -2, -2,|
-1, -1, -1, 0, -1, -1, 1, -1, 1, -1, 1, 0, -1, 0, 1, -1, -1, 0, 1, 0, 1, -2, -2, -2, -2, -2, -2,|
-1, -1, 1, 0, -1, 0, 1, -2, -2, -2, -2, -2, -2, -2, -2, -2, -2, -2, -2, -2, -2, -2, -2, -2, -2, -2, -2,|
-1, 0, -1, -1, 1, 0, -1, -1, 1, 1, -1, 0, -1, 1, -1, 0, 1, -2, -2, -2, -2, -2, -2, -2, -2, -2, -2,|
-1, 0, 1, -2, -2, -2, -2, -2, -2, -2, -2, -2, -2, -2, -2, -2, -2, -2, -2, -2, -2, -2, -2, -2, -2, -2, -2,|
-1, -1, -1, 0, -1, -1, 1, 0, -1, -1, 1, 0, 1, -1, 1, 0, 1, -2, -2, -2, -2, -2, -2, -2, -2, -2, -2,|
-1, -1, -1, 0, -1, -1, 1, -1, 1, -1, 1, 0, 1, 0, 1, -2, -2, -2, -2, -2, -2, -2, -2, -2, -2, -2, -2,|
-1, -1, 1, 0, -1, 0, 1, -2, -2, -2, -2, -2, -2, -2, -2, -2, -2, -2, -2, -2, -2, -2, -2, -2, -2, -2, -2,|
-1, -1, 1, 0, -1, 0, 1, -2, -2, -2, -2, -2, -2, -2, -2, -2, -2, -2, -2, -2, -2, -2, -2, -2, -2, -2, -2,|
-1, -1, 1, 0, -1, -1, -1, 0, -1, 0, 1, -1, 1, 0, 1, -2, -2, -2, -2, -2, -2, -2, -2, -2, -2, -2, -2,|
-1, 0, -1, -1, 1, -1, 1, 0, 1, -2, -2, -2, -2, -2, -2, -2, -2, -2, -2, -2, -2, -2, -2, -2, -2, -2, -2,|
-1, 0, -1, -1, 1, 1, 0, -2, -2, -2, -2, -2, -2, -2, -2, -2, -2, -2, -2, -2, -2, -2, -2, -2, -2, -2, -2,|
-1, -1, 1, 0, -1, -1, 1, -1, 1, 0, 1, -2, -2, -2, -2, -2, -2, -2, -2, -2, -2, -2, -2, -2, -2, -2, -2,|
-1, -1, 1, 0, -1, -1, 1, 0, 1, -2, -2, -2, -2, -2, -2, -2, -2, -2, -2, -2, -2, -2, -2, -2, -2, -2, -2,|
-1, -1, 1, 0, -1, -1, 1, 0, 1, -2, -2, -2, -2, -2, -2, -2, -2, -2, -2, -2, -2, -2, -2, -2, -2, -2, -2,|
-1, -1, -1, 0, -1, -1, 1, -1, 1, -1, 1, 0, 1, 0, -1, -1, 1, 1, 0, -2, -2, -2, -2, -2, -2, -2, -2,|
-1, -1, -1, 0, -1, -1, 1, 0, -1, -1, 1, -1, 1, 0, 1, 1, 0, -2, -2, -2, -2, -2, -2, -2, -2, -2, -2,|
-1, 0, -1, -1, 1, -1, 1, 1, 0, -2, -2, -2, -2, -2, -2, -2, -2, -2, -2, -2, -2, -2, -2, -2, -2, -2, -2,|
-1, -1, 1, 0, -1, -1, 1, -1, 1, 0, 1, -2, -2, -2, -2, -2, -2, -2, -2, -2, -2, -2, -2, -2, -2, -2, -2,|
-1, 0, -1, -1, 1, -1, 1, 0, -1, -1, 1, -1, 0, -1, 1, 1, 0, -2, -2, -2, -2, -2, -2, -2, -2, -2, -2,|
-1, -1, -1, -1, -1, -1, 1, 0, -1, 0, 1, -1, 1, 0, 1, -1, 1, 0, 1, -2, -2, -2, -2, -2, -2, -2, -2,|
-1, -1, 1, 0, -1, -1, -1, -1, 1, -1, 1, -1, 1, 1, 0, 0, -1, 0, 1, -2, -2, -2, -2, -2, -2, -2, -2,|
-1, -1, 1, 0, -1, 0, -1, -1, 1, 1, 0, -2, -2, -2, -2, -2, -2, -2, -2, -2, -2, -2, -2, -2, -2, -2, -2,|
-1, 0, -1, -1, 1, -1, 1, -1, 0, -1, 1, 0, 1, -2, -2, -2, -2, -2, -2, -2, -2, -2, -2, -2, -2, -2, -2,|
-1, 0, 1, -2, -2, -2, -2, -2, -2, -2, -2, -2, -2, -2, -2, -2, -2, -2, -2, -2, -2, -2, -2, -2, -2, -2, -2,|
-1, -1, 1, 0, -1, 0, 1, -2, -2, -2, -2, -2, -2, -2, -2, -2, -2, -2, -2, -2, -2, -2, -2, -2, -2, -2, -2,|
-1, -1, 1, 0, -1, -1, 1, 0, 1, -2, -2, -2, -2, -2, -2, -2, -2, -2, -2, -2, -2, -2, -2, -2, -2, -2, -2,|
-1, -1, 1, 0, -1, -1, 1, -1, 1, 0, 1, -2, -2, -2, -2, -2, -2, -2, -2, -2, -2, -2, -2, -2, -2, -2, -2,|
-1, 0, -1, -1, 1, 1, 0, -2, -2, -2, -2, -2, -2, -2, -2, -2, -2, -2, -2, -2, -2, -2, -2, -2, -2, -2, -2 |];

